# MatrixMarket matrix coordinate real symmetric
# QUBO matrix of maxcut_g000750 (maxcut)
# nodes: 30
# edges: 87
# min - max: -9.0 - 2.0
30 87
1 1 -2.0
1 2 2.0
1 3 2.0
2 2 -4.0
2 3 2.0
2 5 2.0
2 21 2.0
3 3 -5.0
3 4 2.0
3 5 2.0
3 7 2.0
4 4 -3.0
4 5 2.0
4 7 2.0
5 5 -6.0
5 6 2.0
5 7 2.0
5 21 2.0
6 6 -2.0
6 7 2.0
7 7 -9.0
7 8 2.0
7 18 2.0
7 19 2.0
7 20 2.0
7 21 2.0
8 8 -3.0
8 10 2.0
8 18 2.0
9 9 -1.0
9 10 2.0
10 10 -5.0
10 11 2.0
10 18 2.0
10 29 2.0
11 11 -7.0
11 12 2.0
11 13 2.0
11 14 2.0
11 15 2.0
11 16 2.0
11 17 2.0
12 12 -2.0
12 13 2.0
13 13 -3.0
13 14 2.0
14 14 -3.0
14 15 2.0
15 15 -3.0
15 16 2.0
16 16 -2.0
17 17 -1.0
18 18 -5.0
18 19 2.0
18 29 2.0
19 19 -6.0
19 20 2.0
19 23 2.0
19 28 2.0
19 29 2.0
20 20 -5.0
20 21 2.0
20 22 2.0
20 23 2.0
21 21 -5.0
21 22 2.0
22 22 -3.0
22 23 2.0
23 23 -6.0
23 24 2.0
23 27 2.0
23 28 2.0
24 24 -2.0
24 27 2.0
25 25 -2.0
25 26 2.0
25 27 2.0
26 26 -4.0
26 27 2.0
26 28 2.0
26 30 2.0
27 27 -5.0
27 28 2.0
28 28 -5.0
28 29 2.0
29 29 -4.0
30 30 -1.0
