# MatrixMarket matrix coordinate real symmetric
# QUBO matrix of maxcut_g001046 (maxcut)
# nodes: 25
# edges: 75
# min - max: -4.0 - 2.0
25 75
1 1 -4.0
1 2 2.0
1 10 2.0
1 12 2.0
1 23 2.0
2 2 -4.0
2 3 2.0
2 13 2.0
2 22 2.0
3 3 -4.0
3 4 2.0
3 14 2.0
3 24 2.0
4 4 -4.0
4 5 2.0
4 15 2.0
4 23 2.0
5 5 -4.0
5 6 2.0
5 16 2.0
5 25 2.0
6 6 -4.0
6 7 2.0
6 17 2.0
6 24 2.0
7 7 -4.0
7 8 2.0
7 18 2.0
7 21 2.0
8 8 -4.0
8 9 2.0
8 19 2.0
8 25 2.0
9 9 -4.0
9 10 2.0
9 20 2.0
9 22 2.0
10 10 -4.0
10 11 2.0
10 21 2.0
11 11 -4.0
11 13 2.0
11 19 2.0
11 24 2.0
12 12 -4.0
12 14 2.0
12 20 2.0
12 25 2.0
13 13 -4.0
13 15 2.0
13 25 2.0
14 14 -4.0
14 16 2.0
14 21 2.0
15 15 -4.0
15 17 2.0
15 21 2.0
16 16 -4.0
16 18 2.0
16 22 2.0
17 17 -4.0
17 19 2.0
17 22 2.0
18 18 -4.0
18 20 2.0
18 23 2.0
19 19 -4.0
19 23 2.0
20 20 -4.0
20 24 2.0
21 21 -4.0
22 22 -4.0
23 23 -4.0
24 24 -4.0
25 25 -4.0
