# MatrixMarket matrix coordinate real symmetric
# QUBO matrix of coloring_g001055 (coloring)
# nodes: 18
# edges: 72
# min - max: -1.0 - 2.0
18 72
1 1 -1.0
1 2 2.0
1 3 2.0
1 4 1.0
1 7 1.0
1 13 1.0
1 16 1.0
2 2 -1.0
2 3 2.0
2 5 1.0
2 8 1.0
2 14 1.0
2 17 1.0
3 3 -0.5
3 6 1.0
3 9 1.0
3 15 1.0
3 18 1.0
4 4 -1.0
4 5 2.0
4 6 2.0
4 7 1.0
4 10 1.0
4 16 1.0
5 5 -1.0
5 6 2.0
5 8 1.0
5 11 1.0
5 17 1.0
6 6 -0.5
6 9 1.0
6 12 1.0
6 18 1.0
7 7 -1.0
7 8 2.0
7 9 2.0
7 10 1.0
7 13 1.0
8 8 -1.0
8 9 2.0
8 11 1.0
8 14 1.0
9 9 -0.5
9 12 1.0
9 15 1.0
10 10 -1.0
10 11 2.0
10 12 2.0
10 13 1.0
10 16 1.0
11 11 -1.0
11 12 2.0
11 14 1.0
11 17 1.0
12 12 -0.5
12 15 1.0
12 18 1.0
13 13 -1.0
13 14 2.0
13 15 2.0
13 16 1.0
14 14 -1.0
14 15 2.0
14 17 1.0
15 15 -0.5
15 18 1.0
16 16 -1.0
16 17 2.0
16 18 2.0
17 17 -1.0
17 18 2.0
18 18 -0.5
