# MatrixMarket matrix coordinate real symmetric
# QUBO matrix of coloring_g001291 (coloring)
# nodes: 16
# edges: 64
# min - max: -1.0 - 2.0
16 64
1 1 -1.0
1 2 2.0
1 3 2.0
1 4 2.0
1 5 1.0
1 9 1.0
1 13 1.0
2 2 -1.0
2 3 2.0
2 4 2.0
2 6 1.0
2 10 1.0
2 14 1.0
3 3 -0.6666666666666667
3 4 2.0
3 7 1.0
3 11 1.0
3 15 1.0
4 4 -0.33333333333333337
4 8 1.0
4 12 1.0
4 16 1.0
5 5 -1.0
5 6 2.0
5 7 2.0
5 8 2.0
5 9 1.0
5 13 1.0
6 6 -1.0
6 7 2.0
6 8 2.0
6 10 1.0
6 14 1.0
7 7 -0.6666666666666667
7 8 2.0
7 11 1.0
7 15 1.0
8 8 -0.33333333333333337
8 12 1.0
8 16 1.0
9 9 -1.0
9 10 2.0
9 11 2.0
9 12 2.0
9 13 1.0
10 10 -1.0
10 11 2.0
10 12 2.0
10 14 1.0
11 11 -0.6666666666666667
11 12 2.0
11 15 1.0
12 12 -0.33333333333333337
12 16 1.0
13 13 -1.0
13 14 2.0
13 15 2.0
13 16 2.0
14 14 -1.0
14 15 2.0
14 16 2.0
15 15 -0.6666666666666667
15 16 2.0
16 16 -0.33333333333333337
