# MatrixMarket matrix coordinate real symmetric
# QUBO matrix of coloring_g000072 (coloring)
# nodes: 16
# edges: 48
# min - max: -1.0 - 2.0
16 48
1 1 -1.0
1 2 2.0
1 3 1.0
1 7 1.0
1 11 1.0
2 2 -1.0
2 4 1.0
2 8 1.0
2 12 1.0
3 3 -1.0
3 4 2.0
3 5 1.0
3 13 1.0
4 4 -1.0
4 6 1.0
4 14 1.0
5 5 -1.0
5 6 2.0
5 7 1.0
5 15 1.0
6 6 -1.0
6 8 1.0
6 16 1.0
7 7 -1.0
7 8 2.0
7 9 1.0
8 8 -1.0
8 10 1.0
9 9 -1.0
9 10 2.0
9 11 1.0
9 15 1.0
10 10 -1.0
10 12 1.0
10 16 1.0
11 11 -1.0
11 12 2.0
11 13 1.0
12 12 -1.0
12 14 1.0
13 13 -1.0
13 14 2.0
13 15 1.0
14 14 -1.0
14 16 1.0
15 15 -1.0
15 16 2.0
16 16 -1.0
