# MatrixMarket matrix coordinate real symmetric
# QUBO matrix of coloring_g001511 (coloring)
# nodes: 28
# edges: 118
# min - max: -1.0 - 2.0
28 118
1 1 -1.0
1 2 2.0
1 3 2.0
1 4 2.0
1 5 1.0
1 9 1.0
1 17 1.0
1 21 1.0
2 2 -1.0
2 3 2.0
2 4 2.0
2 6 1.0
2 10 1.0
2 18 1.0
2 22 1.0
3 3 -0.6666666666666667
3 4 2.0
3 7 1.0
3 11 1.0
3 19 1.0
3 23 1.0
4 4 -0.33333333333333337
4 8 1.0
4 12 1.0
4 20 1.0
4 24 1.0
5 5 -1.0
5 6 2.0
5 7 2.0
5 8 2.0
5 9 1.0
5 13 1.0
5 21 1.0
6 6 -1.0
6 7 2.0
6 8 2.0
6 10 1.0
6 14 1.0
6 22 1.0
7 7 -0.6666666666666667
7 8 2.0
7 11 1.0
7 15 1.0
7 23 1.0
8 8 -0.33333333333333337
8 12 1.0
8 16 1.0
8 24 1.0
9 9 -1.0
9 10 2.0
9 11 2.0
9 12 2.0
9 13 1.0
9 17 1.0
10 10 -1.0
10 11 2.0
10 12 2.0
10 14 1.0
10 18 1.0
11 11 -0.6666666666666667
11 12 2.0
11 15 1.0
11 19 1.0
12 12 -0.33333333333333337
12 16 1.0
12 20 1.0
13 13 -1.0
13 14 2.0
13 15 2.0
13 16 2.0
13 25 1.0
14 14 -1.0
14 15 2.0
14 16 2.0
14 26 1.0
15 15 -0.6666666666666667
15 16 2.0
15 27 1.0
16 16 -0.33333333333333337
16 28 1.0
17 17 -1.0
17 18 2.0
17 19 2.0
17 20 2.0
17 25 1.0
18 18 -1.0
18 19 2.0
18 20 2.0
18 26 1.0
19 19 -0.6666666666666667
19 20 2.0
19 27 1.0
20 20 -0.33333333333333337
20 28 1.0
21 21 -1.0
21 22 2.0
21 23 2.0
21 24 2.0
21 25 1.0
22 22 -1.0
22 23 2.0
22 24 2.0
22 26 1.0
23 23 -0.6666666666666667
23 24 2.0
23 27 1.0
24 24 -0.33333333333333337
24 28 1.0
25 25 -1.0
25 26 2.0
25 27 2.0
25 28 2.0
26 26 -1.0
26 27 2.0
26 28 2.0
27 27 -0.6666666666666667
27 28 2.0
28 28 -0.33333333333333337
