# MatrixMarket matrix coordinate real symmetric
# QUBO matrix of maxcut_g002768 (maxcut)
# nodes: 23
# edges: 94
# min - max: -11.0 - 2.0
23 94
1 1 -8.0
1 2 2.0
1 4 2.0
1 7 2.0
1 9 2.0
1 13 2.0
1 15 2.0
1 18 2.0
1 20 2.0
2 2 -8.0
2 3 2.0
2 6 2.0
2 8 2.0
2 12 2.0
2 14 2.0
2 17 2.0
2 19 2.0
3 3 -8.0
3 5 2.0
3 7 2.0
3 10 2.0
3 13 2.0
3 16 2.0
3 18 2.0
3 21 2.0
4 4 -8.0
4 5 2.0
4 6 2.0
4 10 2.0
4 12 2.0
4 16 2.0
4 17 2.0
4 21 2.0
5 5 -8.0
5 8 2.0
5 9 2.0
5 14 2.0
5 15 2.0
5 19 2.0
5 20 2.0
6 6 -6.0
6 11 2.0
6 13 2.0
6 15 2.0
6 22 2.0
7 7 -6.0
7 11 2.0
7 12 2.0
7 14 2.0
7 22 2.0
8 8 -6.0
8 11 2.0
8 13 2.0
8 16 2.0
8 22 2.0
9 9 -6.0
9 11 2.0
9 12 2.0
9 16 2.0
9 22 2.0
10 10 -6.0
10 11 2.0
10 14 2.0
10 15 2.0
10 22 2.0
11 11 -10.0
11 17 2.0
11 18 2.0
11 19 2.0
11 20 2.0
11 21 2.0
12 12 -5.0
12 23 2.0
13 13 -5.0
13 23 2.0
14 14 -5.0
14 23 2.0
15 15 -5.0
15 23 2.0
16 16 -5.0
16 23 2.0
17 17 -4.0
17 23 2.0
18 18 -4.0
18 23 2.0
19 19 -4.0
19 23 2.0
20 20 -4.0
20 23 2.0
21 21 -4.0
21 23 2.0
22 22 -6.0
22 23 2.0
23 23 -11.0
